\ Model kakuro
\ LP format - for model browsing. Use MPS format to capture full model detail.
Minimize
 
Subject To
 Vertical_Sum_at_(0,3): G[1,3,0] + 2 G[1,3,1] + 3 G[1,3,2] + 4 G[1,3,3]
   + 5 G[1,3,4] + 6 G[1,3,5] + 7 G[1,3,6] + 8 G[1,3,7] + 9 G[1,3,8]
   + G[2,3,0] + 2 G[2,3,1] + 3 G[2,3,2] + 4 G[2,3,3] + 5 G[2,3,4]
   + 6 G[2,3,5] + 7 G[2,3,6] + 8 G[2,3,7] + 9 G[2,3,8] + G[3,3,0]
   + 2 G[3,3,1] + 3 G[3,3,2] + 4 G[3,3,3] + 5 G[3,3,4] + 6 G[3,3,5]
   + 7 G[3,3,6] + 8 G[3,3,7] + 9 G[3,3,8] = 13
 ColUniqueness_at_(0,3): G[1,3,0] + G[2,3,0] + G[3,3,0] <= 1
 ColUniqueness_at_(0,3): G[1,3,1] + G[2,3,1] + G[3,3,1] <= 1
 ColUniqueness_at_(0,3): G[1,3,2] + G[2,3,2] + G[3,3,2] <= 1
 ColUniqueness_at_(0,3): G[1,3,3] + G[2,3,3] + G[3,3,3] <= 1
 ColUniqueness_at_(0,3): G[1,3,4] + G[2,3,4] + G[3,3,4] <= 1
 ColUniqueness_at_(0,3): G[1,3,5] + G[2,3,5] + G[3,3,5] <= 1
 ColUniqueness_at_(0,3): G[1,3,6] + G[2,3,6] + G[3,3,6] <= 1
 ColUniqueness_at_(0,3): G[1,3,7] + G[2,3,7] + G[3,3,7] <= 1
 ColUniqueness_at_(0,3): G[1,3,8] + G[2,3,8] + G[3,3,8] <= 1
 Vertical_Sum_at_(0,4): G[1,4,0] + 2 G[1,4,1] + 3 G[1,4,2] + 4 G[1,4,3]
   + 5 G[1,4,4] + 6 G[1,4,5] + 7 G[1,4,6] + 8 G[1,4,7] + 9 G[1,4,8]
   + G[2,4,0] + 2 G[2,4,1] + 3 G[2,4,2] + 4 G[2,4,3] + 5 G[2,4,4]
   + 6 G[2,4,5] + 7 G[2,4,6] + 8 G[2,4,7] + 9 G[2,4,8] = 9
 ColUniqueness_at_(0,4): G[1,4,0] + G[2,4,0] <= 1
 ColUniqueness_at_(0,4): G[1,4,1] + G[2,4,1] <= 1
 ColUniqueness_at_(0,4): G[1,4,2] + G[2,4,2] <= 1
 ColUniqueness_at_(0,4): G[1,4,3] + G[2,4,3] <= 1
 ColUniqueness_at_(0,4): G[1,4,4] + G[2,4,4] <= 1
 ColUniqueness_at_(0,4): G[1,4,5] + G[2,4,5] <= 1
 ColUniqueness_at_(0,4): G[1,4,6] + G[2,4,6] <= 1
 ColUniqueness_at_(0,4): G[1,4,7] + G[2,4,7] <= 1
 ColUniqueness_at_(0,4): G[1,4,8] + G[2,4,8] <= 1
 Vertical_Sum_at_(1,2): G[2,2,0] + 2 G[2,2,1] + 3 G[2,2,2] + 4 G[2,2,3]
   + 5 G[2,2,4] + 6 G[2,2,5] + 7 G[2,2,6] + 8 G[2,2,7] + 9 G[2,2,8]
   + G[3,2,0] + 2 G[3,2,1] + 3 G[3,2,2] + 4 G[3,2,3] + 5 G[3,2,4]
   + 6 G[3,2,5] + 7 G[3,2,6] + 8 G[3,2,7] + 9 G[3,2,8] + G[4,2,0]
   + 2 G[4,2,1] + 3 G[4,2,2] + 4 G[4,2,3] + 5 G[4,2,4] + 6 G[4,2,5]
   + 7 G[4,2,6] + 8 G[4,2,7] + 9 G[4,2,8] = 13
 ColUniqueness_at_(1,2): G[2,2,0] + G[3,2,0] + G[4,2,0] <= 1
 ColUniqueness_at_(1,2): G[2,2,1] + G[3,2,1] + G[4,2,1] <= 1
 ColUniqueness_at_(1,2): G[2,2,2] + G[3,2,2] + G[4,2,2] <= 1
 ColUniqueness_at_(1,2): G[2,2,3] + G[3,2,3] + G[4,2,3] <= 1
 ColUniqueness_at_(1,2): G[2,2,4] + G[3,2,4] + G[4,2,4] <= 1
 ColUniqueness_at_(1,2): G[2,2,5] + G[3,2,5] + G[4,2,5] <= 1
 ColUniqueness_at_(1,2): G[2,2,6] + G[3,2,6] + G[4,2,6] <= 1
 ColUniqueness_at_(1,2): G[2,2,7] + G[3,2,7] + G[4,2,7] <= 1
 ColUniqueness_at_(1,2): G[2,2,8] + G[3,2,8] + G[4,2,8] <= 1
 RightSum_at_(1,2): G[1,3,0] + 2 G[1,3,1] + 3 G[1,3,2] + 4 G[1,3,3]
   + 5 G[1,3,4] + 6 G[1,3,5] + 7 G[1,3,6] + 8 G[1,3,7] + 9 G[1,3,8]
   + G[1,4,0] + 2 G[1,4,1] + 3 G[1,4,2] + 4 G[1,4,3] + 5 G[1,4,4]
   + 6 G[1,4,5] + 7 G[1,4,6] + 8 G[1,4,7] + 9 G[1,4,8] = 17
 RowUniqueness_at_(1,2): G[1,3,0] + G[1,4,0] <= 1
 RowUniqueness_at_(1,2): G[1,3,1] + G[1,4,1] <= 1
 RowUniqueness_at_(1,2): G[1,3,2] + G[1,4,2] <= 1
 RowUniqueness_at_(1,2): G[1,3,3] + G[1,4,3] <= 1
 RowUniqueness_at_(1,2): G[1,3,4] + G[1,4,4] <= 1
 RowUniqueness_at_(1,2): G[1,3,5] + G[1,4,5] <= 1
 RowUniqueness_at_(1,2): G[1,3,6] + G[1,4,6] <= 1
 RowUniqueness_at_(1,2): G[1,3,7] + G[1,4,7] <= 1
 RowUniqueness_at_(1,2): G[1,3,8] + G[1,4,8] <= 1
 MissingVal_at_(1,3): G[1,3,0] + G[1,3,1] + G[1,3,2] + G[1,3,3] + G[1,3,4]
   + G[1,3,5] + G[1,3,6] + G[1,3,7] + G[1,3,8] = 1
 MissingVal_at_(1,4): G[1,4,0] + G[1,4,1] + G[1,4,2] + G[1,4,3] + G[1,4,4]
   + G[1,4,5] + G[1,4,6] + G[1,4,7] + G[1,4,8] = 1
 Vertical_Sum_at_(2,1): G[3,1,0] + 2 G[3,1,1] + 3 G[3,1,2] + 4 G[3,1,3]
   + 5 G[3,1,4] + 6 G[3,1,5] + 7 G[3,1,6] + 8 G[3,1,7] + 9 G[3,1,8]
   + G[4,1,0] + 2 G[4,1,1] + 3 G[4,1,2] + 4 G[4,1,3] + 5 G[4,1,4]
   + 6 G[4,1,5] + 7 G[4,1,6] + 8 G[4,1,7] + 9 G[4,1,8] = 3
 ColUniqueness_at_(2,1): G[3,1,0] + G[4,1,0] <= 1
 ColUniqueness_at_(2,1): G[3,1,1] + G[4,1,1] <= 1
 ColUniqueness_at_(2,1): G[3,1,2] + G[4,1,2] <= 1
 ColUniqueness_at_(2,1): G[3,1,3] + G[4,1,3] <= 1
 ColUniqueness_at_(2,1): G[3,1,4] + G[4,1,4] <= 1
 ColUniqueness_at_(2,1): G[3,1,5] + G[4,1,5] <= 1
 ColUniqueness_at_(2,1): G[3,1,6] + G[4,1,6] <= 1
 ColUniqueness_at_(2,1): G[3,1,7] + G[4,1,7] <= 1
 ColUniqueness_at_(2,1): G[3,1,8] + G[4,1,8] <= 1
 RightSum_at_(2,1): G[2,2,0] + 2 G[2,2,1] + 3 G[2,2,2] + 4 G[2,2,3]
   + 5 G[2,2,4] + 6 G[2,2,5] + 7 G[2,2,6] + 8 G[2,2,7] + 9 G[2,2,8]
   + G[2,3,0] + 2 G[2,3,1] + 3 G[2,3,2] + 4 G[2,3,3] + 5 G[2,3,4]
   + 6 G[2,3,5] + 7 G[2,3,6] + 8 G[2,3,7] + 9 G[2,3,8] + G[2,4,0]
   + 2 G[2,4,1] + 3 G[2,4,2] + 4 G[2,4,3] + 5 G[2,4,4] + 6 G[2,4,5]
   + 7 G[2,4,6] + 8 G[2,4,7] + 9 G[2,4,8] = 10
 RowUniqueness_at_(2,1): G[2,2,0] + G[2,3,0] + G[2,4,0] <= 1
 RowUniqueness_at_(2,1): G[2,2,1] + G[2,3,1] + G[2,4,1] <= 1
 RowUniqueness_at_(2,1): G[2,2,2] + G[2,3,2] + G[2,4,2] <= 1
 RowUniqueness_at_(2,1): G[2,2,3] + G[2,3,3] + G[2,4,3] <= 1
 RowUniqueness_at_(2,1): G[2,2,4] + G[2,3,4] + G[2,4,4] <= 1
 RowUniqueness_at_(2,1): G[2,2,5] + G[2,3,5] + G[2,4,5] <= 1
 RowUniqueness_at_(2,1): G[2,2,6] + G[2,3,6] + G[2,4,6] <= 1
 RowUniqueness_at_(2,1): G[2,2,7] + G[2,3,7] + G[2,4,7] <= 1
 RowUniqueness_at_(2,1): G[2,2,8] + G[2,3,8] + G[2,4,8] <= 1
 MissingVal_at_(2,2): G[2,2,0] + G[2,2,1] + G[2,2,2] + G[2,2,3] + G[2,2,4]
   + G[2,2,5] + G[2,2,6] + G[2,2,7] + G[2,2,8] = 1
 MissingVal_at_(2,3): G[2,3,0] + G[2,3,1] + G[2,3,2] + G[2,3,3] + G[2,3,4]
   + G[2,3,5] + G[2,3,6] + G[2,3,7] + G[2,3,8] = 1
 MissingVal_at_(2,4): G[2,4,0] + G[2,4,1] + G[2,4,2] + G[2,4,3] + G[2,4,4]
   + G[2,4,5] + G[2,4,6] + G[2,4,7] + G[2,4,8] = 1
 RightSum_at_(3,0): G[3,1,0] + 2 G[3,1,1] + 3 G[3,1,2] + 4 G[3,1,3]
   + 5 G[3,1,4] + 6 G[3,1,5] + 7 G[3,1,6] + 8 G[3,1,7] + 9 G[3,1,8]
   + G[3,2,0] + 2 G[3,2,1] + 3 G[3,2,2] + 4 G[3,2,3] + 5 G[3,2,4]
   + 6 G[3,2,5] + 7 G[3,2,6] + 8 G[3,2,7] + 9 G[3,2,8] + G[3,3,0]
   + 2 G[3,3,1] + 3 G[3,3,2] + 4 G[3,3,3] + 5 G[3,3,4] + 6 G[3,3,5]
   + 7 G[3,3,6] + 8 G[3,3,7] + 9 G[3,3,8] = 7
 RowUniqueness_at_(3,0): G[3,1,0] + G[3,2,0] + G[3,3,0] <= 1
 RowUniqueness_at_(3,0): G[3,1,1] + G[3,2,1] + G[3,3,1] <= 1
 RowUniqueness_at_(3,0): G[3,1,2] + G[3,2,2] + G[3,3,2] <= 1
 RowUniqueness_at_(3,0): G[3,1,3] + G[3,2,3] + G[3,3,3] <= 1
 RowUniqueness_at_(3,0): G[3,1,4] + G[3,2,4] + G[3,3,4] <= 1
 RowUniqueness_at_(3,0): G[3,1,5] + G[3,2,5] + G[3,3,5] <= 1
 RowUniqueness_at_(3,0): G[3,1,6] + G[3,2,6] + G[3,3,6] <= 1
 RowUniqueness_at_(3,0): G[3,1,7] + G[3,2,7] + G[3,3,7] <= 1
 RowUniqueness_at_(3,0): G[3,1,8] + G[3,2,8] + G[3,3,8] <= 1
 MissingVal_at_(3,1): G[3,1,0] + G[3,1,1] + G[3,1,2] + G[3,1,3] + G[3,1,4]
   + G[3,1,5] + G[3,1,6] + G[3,1,7] + G[3,1,8] = 1
 MissingVal_at_(3,2): G[3,2,0] + G[3,2,1] + G[3,2,2] + G[3,2,3] + G[3,2,4]
   + G[3,2,5] + G[3,2,6] + G[3,2,7] + G[3,2,8] = 1
 MissingVal_at_(3,3): G[3,3,0] + G[3,3,1] + G[3,3,2] + G[3,3,3] + G[3,3,4]
   + G[3,3,5] + G[3,3,6] + G[3,3,7] + G[3,3,8] = 1
 RightSum_at_(4,0): G[4,1,0] + 2 G[4,1,1] + 3 G[4,1,2] + 4 G[4,1,3]
   + 5 G[4,1,4] + 6 G[4,1,5] + 7 G[4,1,6] + 8 G[4,1,7] + 9 G[4,1,8]
   + G[4,2,0] + 2 G[4,2,1] + 3 G[4,2,2] + 4 G[4,2,3] + 5 G[4,2,4]
   + 6 G[4,2,5] + 7 G[4,2,6] + 8 G[4,2,7] + 9 G[4,2,8] = 4
 RowUniqueness_at_(4,0): G[4,1,0] + G[4,2,0] <= 1
 RowUniqueness_at_(4,0): G[4,1,1] + G[4,2,1] <= 1
 RowUniqueness_at_(4,0): G[4,1,2] + G[4,2,2] <= 1
 RowUniqueness_at_(4,0): G[4,1,3] + G[4,2,3] <= 1
 RowUniqueness_at_(4,0): G[4,1,4] + G[4,2,4] <= 1
 RowUniqueness_at_(4,0): G[4,1,5] + G[4,2,5] <= 1
 RowUniqueness_at_(4,0): G[4,1,6] + G[4,2,6] <= 1
 RowUniqueness_at_(4,0): G[4,1,7] + G[4,2,7] <= 1
 RowUniqueness_at_(4,0): G[4,1,8] + G[4,2,8] <= 1
 MissingVal_at_(4,1): G[4,1,0] + G[4,1,1] + G[4,1,2] + G[4,1,3] + G[4,1,4]
   + G[4,1,5] + G[4,1,6] + G[4,1,7] + G[4,1,8] = 1
 MissingVal_at_(4,2): G[4,2,0] + G[4,2,1] + G[4,2,2] + G[4,2,3] + G[4,2,4]
   + G[4,2,5] + G[4,2,6] + G[4,2,7] + G[4,2,8] = 1
Bounds
Binaries
 G[1,3,0] G[1,3,1] G[1,3,2] G[1,3,3] G[1,3,4] G[1,3,5] G[1,3,6] G[1,3,7]
 G[1,3,8] G[1,4,0] G[1,4,1] G[1,4,2] G[1,4,3] G[1,4,4] G[1,4,5] G[1,4,6]
 G[1,4,7] G[1,4,8] G[2,2,0] G[2,2,1] G[2,2,2] G[2,2,3] G[2,2,4] G[2,2,5]
 G[2,2,6] G[2,2,7] G[2,2,8] G[2,3,0] G[2,3,1] G[2,3,2] G[2,3,3] G[2,3,4]
 G[2,3,5] G[2,3,6] G[2,3,7] G[2,3,8] G[2,4,0] G[2,4,1] G[2,4,2] G[2,4,3]
 G[2,4,4] G[2,4,5] G[2,4,6] G[2,4,7] G[2,4,8] G[3,1,0] G[3,1,1] G[3,1,2]
 G[3,1,3] G[3,1,4] G[3,1,5] G[3,1,6] G[3,1,7] G[3,1,8] G[3,2,0] G[3,2,1]
 G[3,2,2] G[3,2,3] G[3,2,4] G[3,2,5] G[3,2,6] G[3,2,7] G[3,2,8] G[3,3,0]
 G[3,3,1] G[3,3,2] G[3,3,3] G[3,3,4] G[3,3,5] G[3,3,6] G[3,3,7] G[3,3,8]
 G[4,1,0] G[4,1,1] G[4,1,2] G[4,1,3] G[4,1,4] G[4,1,5] G[4,1,6] G[4,1,7]
 G[4,1,8] G[4,2,0] G[4,2,1] G[4,2,2] G[4,2,3] G[4,2,4] G[4,2,5] G[4,2,6]
 G[4,2,7] G[4,2,8]
End
